
Value of objective function: 1.68439716

Actual values of the variables:
score                      1.6844
x_0_t_1                       0.5
x_1_t_1                       0.5
x_0_t_0                         0
x_0_t_2                       0.5
x_0_t_3                       0.5
x_0_t_4                   0.97305
x_0_t_5                   0.97305
x_0_t_6                   0.97305
x_0_t_7                   0.97305
x_0_t_8                   0.97305
x_0_t_9                   0.97305
x_0_t_10                  0.97305
x_0_t_11                  0.97305
x_0_t_12                  0.97305
x_0_t_13                  0.97305
x_0_t_14                  0.97305
x_0_t_15                  0.97305
x_0_t_16                        1
x_1_t_0                         0
x_1_t_2                  0.815603
x_1_t_3                  0.815603
x_1_t_4                  0.815603
x_1_t_5                  0.815603
x_1_t_6                  0.815603
x_1_t_7                  0.815603
x_1_t_8                  0.815603
x_1_t_9                  0.815603
x_1_t_10                 0.815603
x_1_t_11                 0.815603
x_1_t_12                 0.815603
x_1_t_13                 0.815603
x_1_t_14                 0.815603
x_1_t_15                 0.815603
x_1_t_16                 0.815603
x_10_t_0                        0
x_10_t_1                        0
x_10_t_2                        0
x_10_t_3                        0
x_10_t_4                        0
x_10_t_5                        0
x_10_t_6                        0
x_10_t_7                        0
x_10_t_8                        0
x_10_t_9                        0
x_10_t_10                0.230496
x_10_t_11                0.914894
x_10_t_12                0.914894
x_10_t_13                0.914894
x_10_t_14                0.914894
x_10_t_15                0.914894
x_10_t_16                0.914894
x_11_t_0                        0
x_11_t_1                        0
x_11_t_2                        0
x_11_t_3                        0
x_11_t_4                        0
x_11_t_5                        0
x_11_t_6                        0
x_11_t_7                        0
x_11_t_8                        0
x_11_t_9                        0
x_11_t_10                       0
x_11_t_11               0.0851064
x_11_t_12               0.0851064
x_11_t_13               0.0851064
x_11_t_14                 0.72695
x_11_t_15                 0.72695
x_11_t_16                 0.72695
x_12_t_0                        0
x_12_t_1                        0
x_12_t_2                        0
x_12_t_3                        0
x_12_t_4                        0
x_12_t_5                        0
x_12_t_6                        0
x_12_t_7                        0
x_12_t_8                        0
x_12_t_9                        0
x_12_t_10                       0
x_12_t_11                       0
x_12_t_12                0.315603
x_12_t_13                       1
x_12_t_14                       1
x_12_t_15                       1
x_12_t_16                       1
x_13_t_0                        0
x_13_t_1                        0
x_13_t_2                        0
x_13_t_3                        0
x_13_t_4                        0
x_13_t_5                        0
x_13_t_6                        0
x_13_t_7                        0
x_13_t_8                        0
x_13_t_9                        0
x_13_t_10                       0
x_13_t_11                       0
x_13_t_12                       0
x_13_t_13                       0
x_13_t_14                       0
x_13_t_15                       0
x_13_t_16                       0
x_14_t_0                        0
x_14_t_1                        0
x_14_t_2                        0
x_14_t_3                        0
x_14_t_4                        0
x_14_t_5                        0
x_14_t_6                        0
x_14_t_7                        0
x_14_t_8                        0
x_14_t_9                        0
x_14_t_10                       0
x_14_t_11                       0
x_14_t_12                       0
x_14_t_13                       0
x_14_t_14                 0.27305
x_14_t_15                0.957447
x_14_t_16                0.957447
x_15_t_0                        0
x_15_t_1                        0
x_15_t_2                        0
x_15_t_3                        0
x_15_t_4                        0
x_15_t_5                        0
x_15_t_6                        0
x_15_t_7                        0
x_15_t_8                        0
x_15_t_9                        0
x_15_t_10                       0
x_15_t_11                       0
x_15_t_12                       0
x_15_t_13                       0
x_15_t_14                       0
x_15_t_15               0.0425532
x_15_t_16                       1
x_2_t_0                         0
x_2_t_1                         0
x_2_t_2                  0.184397
x_2_t_3                  0.473759
x_2_t_4                  0.473759
x_2_t_5                  0.473759
x_2_t_6                  0.473759
x_2_t_7                  0.473759
x_2_t_8                  0.473759
x_2_t_9                  0.473759
x_2_t_10                 0.473759
x_2_t_11                 0.473759
x_2_t_12                 0.473759
x_2_t_13                 0.473759
x_2_t_14                 0.473759
x_2_t_15                 0.473759
x_2_t_16                 0.473759
x_3_t_0                         0
x_3_t_1                         0
x_3_t_2                         0
x_3_t_3                  0.526241
x_3_t_4                  0.526241
x_3_t_5                  0.526241
x_3_t_6                  0.947518
x_3_t_7                  0.947518
x_3_t_8                  0.947518
x_3_t_9                  0.947518
x_3_t_10                 0.947518
x_3_t_11                 0.947518
x_3_t_12                 0.947518
x_3_t_13                 0.947518
x_3_t_14                 0.947518
x_3_t_15                 0.947518
x_3_t_16                 0.947518
x_4_t_0                         0
x_4_t_1                         0
x_4_t_2                         0
x_4_t_3                         0
x_4_t_4                 0.0269504
x_4_t_5                  0.446099
x_4_t_6                  0.446099
x_4_t_7                  0.446099
x_4_t_8                  0.446099
x_4_t_9                  0.446099
x_4_t_10                 0.446099
x_4_t_11                 0.446099
x_4_t_12                 0.446099
x_4_t_13                 0.446099
x_4_t_14                 0.446099
x_4_t_15                 0.446099
x_4_t_16                 0.446099
x_5_t_0                         0
x_5_t_1                         0
x_5_t_2                         0
x_5_t_3                         0
x_5_t_4                         0
x_5_t_5                  0.553901
x_5_t_6                  0.553901
x_5_t_7                  0.553901
x_5_t_8                  0.734752
x_5_t_9                  0.734752
x_5_t_10                 0.734752
x_5_t_11                 0.734752
x_5_t_12                 0.734752
x_5_t_13                 0.734752
x_5_t_14                 0.734752
x_5_t_15                 0.734752
x_5_t_16                        1
x_6_t_0                         0
x_6_t_1                         0
x_6_t_2                         0
x_6_t_3                         0
x_6_t_4                         0
x_6_t_5                         0
x_6_t_6                 0.0524823
x_6_t_7                  0.736879
x_6_t_8                  0.736879
x_6_t_9                  0.736879
x_6_t_10                 0.736879
x_6_t_11                 0.736879
x_6_t_12                 0.736879
x_6_t_13                 0.736879
x_6_t_14                 0.736879
x_6_t_15                 0.736879
x_6_t_16                 0.736879
x_7_t_0                         0
x_7_t_1                         0
x_7_t_2                         0
x_7_t_3                         0
x_7_t_4                         0
x_7_t_5                         0
x_7_t_6                         0
x_7_t_7                  0.263121
x_7_t_8                  0.263121
x_7_t_9                  0.485816
x_7_t_10                 0.769504
x_7_t_11                 0.769504
x_7_t_12                 0.769504
x_7_t_13                 0.769504
x_7_t_14                 0.769504
x_7_t_15                 0.769504
x_7_t_16                        1
x_8_t_0                         0
x_8_t_1                         0
x_8_t_2                         0
x_8_t_3                         0
x_8_t_4                         0
x_8_t_5                         0
x_8_t_6                         0
x_8_t_7                         0
x_8_t_8                  0.265248
x_8_t_9                   0.72695
x_8_t_10                  0.72695
x_8_t_11                  0.72695
x_8_t_12                  0.72695
x_8_t_13                  0.72695
x_8_t_14                  0.72695
x_8_t_15                  0.72695
x_8_t_16                        1
x_9_t_0                         0
x_9_t_1                         0
x_9_t_2                         0
x_9_t_3                         0
x_9_t_4                         0
x_9_t_5                         0
x_9_t_6                         0
x_9_t_7                         0
x_9_t_8                         0
x_9_t_9                   0.27305
x_9_t_10                  0.27305
x_9_t_11                  0.27305
x_9_t_12                 0.684397
x_9_t_13                 0.684397
x_9_t_14                 0.684397
x_9_t_15                 0.684397
x_9_t_16                 0.684397
